num_asignaturas = 10;
num_salas = 5;
prioridad = [3, 4, 1, 4, 2, 3, 7, 4, 10, 1];
demanda = [60, 47, 54, 55, 54, 68, 73, 68, 79, 41];
capacidad = [71, 61, 50, 47, 55];
tipo_bloque = [1, 1, 1, 0, 0, 0, 1, 1, 1, 0];
bloques_restriccion = [|
 [(Jueves, 2), (Miércoles, 4), (Martes, 3), (Jueves, 7), (Viernes, 7), (Martes, 4), (Martes, 5), (Miércoles, 2), (Jueves, 5), (Miércoles, 7), (Jueves, 4), (Jueves, 3)],
 [(Miércoles, 3), (Martes, 1), (Viernes, 6), (Jueves, 4), (Lunes, 7), (Miércoles, 5), (Miércoles, 2), (Viernes, 7), (Martes, 2), (Jueves, 6), (Lunes, 5), (Viernes, 4), (Jueves, 5), (Martes, 4), (Miércoles, 7), (Lunes, 4), (Miércoles, 4), (Jueves, 7), (Martes, 6), (Jueves, 1), (Viernes, 1)],
 [(Jueves, 2), (Lunes, 2), (Lunes, 6), (Lunes, 7), (Jueves, 1), (Martes, 2), (Viernes, 4), (Viernes, 7), (Miércoles, 2), (Miércoles, 7)],
 [(Lunes, 2), (Jueves, 2), (Lunes, 4), (Jueves, 4), (Martes, 1), (Miércoles, 6), (Martes, 3), (Martes, 2), (Viernes, 1), (Miércoles, 4), (Lunes, 7), (Miércoles, 5), (Martes, 6), (Miércoles, 2), (Lunes, 5), (Martes, 5), (Martes, 7), (Jueves, 7), (Lunes, 6), (Miércoles, 7)],
 [(Jueves, 3), (Lunes, 4), (Miércoles, 3), (Lunes, 1), (Lunes, 2), (Lunes, 6), (Viernes, 1), (Miércoles, 7), (Martes, 6), (Jueves, 1), (Jueves, 5), (Viernes, 3), (Jueves, 4), (Lunes, 5), (Martes, 3), (Lunes, 3), (Miércoles, 5), (Viernes, 4), (Viernes, 2), (Martes, 2)],
 [(Miércoles, 7), (Miércoles, 3), (Martes, 1), (Viernes, 7), (Jueves, 4), (Lunes, 6), (Lunes, 3)],
 [(Jueves, 1), (Miércoles, 6), (Martes, 7), (Viernes, 2), (Viernes, 5), (Lunes, 1), (Lunes, 5), (Miércoles, 1), (Jueves, 2), (Martes, 1), (Viernes, 1), (Martes, 3), (Lunes, 3), (Miércoles, 4), (Martes, 2), (Jueves, 3), (Lunes, 2), (Miércoles, 5), (Viernes, 6), (Martes, 4), (Martes, 6)],
 [(Jueves, 4), (Jueves, 6), (Jueves, 1), (Viernes, 4), (Miércoles, 2), (Jueves, 5), (Martes, 4)],
 [(Martes, 7), (Viernes, 6), (Martes, 6), (Lunes, 2), (Viernes, 7), (Jueves, 1), (Lunes, 5), (Lunes, 4), (Lunes, 6), (Jueves, 2), (Martes, 1), (Viernes, 3)],
 [(Miércoles, 3), (Jueves, 7), (Lunes, 1), (Miércoles, 7), (Martes, 2), (Lunes, 7), (Viernes, 2), (Viernes, 6), (Martes, 4), (Martes, 3), (Viernes, 4), (Lunes, 6), (Martes, 7), (Jueves, 1), (Miércoles, 4), (Lunes, 4), (Jueves, 2), (Viernes, 3), (Jueves, 3), (Lunes, 3)],
|];
